benchmark/eusolver/LinExpr_mo.sl
(set-logic LIA)

(synth-fun inv ((x Int) (y Int)) Int
    ((Start Int (x
                 y
                 0
                 1
                 (+ Startx Start)
                 (- Start Start)
                 (ite StartBool Start Start)))
     (Startx Int (x
                 y
                 0
                 1
                 ))
     (StartBool Bool ((and StartBool StartBool)
                      (or  StartBool StartBool)
                      (not StartBool)
                      (<  Start Start)
                      (=   Start Start)
                      (<=  Start Start)))))




(declare-var x Int)
(declare-var y Int)

(constraint (= (inv x y) (ite (or (= x 1) (= y 1)) 3 1)))

(check-synth) 
