benchmark/obecase/tmp/LinExpr_mo.out
8 {inv:+(1,ite(||(=(Param0,1),=(Param1,1)),+(1,1),0))}
62.3402040000
